
Gurobi 7.0.2 (linux64) logging started Mon Jun 12 10:11:26 2017

Changed value of parameter logfile to result/NEIS-20170612T0949/scenario_200000PVS30PVWE10var-cost0075.log
   Prev: gurobi.log  Default: 
Optimize a model with 1059933 rows, 937229 columns and 3979188 nonzeros
Coefficient statistics:
  Matrix range     [8e-04, 1e+05]
  Objective range  [1e+00, 1e+00]
  Bounds range     [0e+00, 0e+00]
  RHS range        [3e-03, 2e+05]

Concurrent LP optimizer: primal simplex, dual simplex, and barrier
Showing barrier log only...

Presolve removed 594694 rows and 643281 columns
Presolve time: 2.70s
Presolved: 465239 rows, 293948 columns, 1347043 nonzeros

Ordering time: 0.40s

Barrier statistics:
 Dense cols : 21
 AA' NZ     : 1.881e+06
 Factor NZ  : 6.959e+06 (roughly 400 MBytes of memory)
 Factor Ops : 1.640e+08 (less than 1 second per iteration)
 Threads    : 22

                  Objective                Residual
Iter       Primal          Dual         Primal    Dual     Compl     Time
   0   3.86574587e+11 -2.66484584e+11  9.53e+02 6.93e+03  2.20e+07     4s
   1   3.06106582e+11 -9.69719446e+10  6.99e+02 1.33e+04  7.03e+06     4s
   2   2.98842279e+11 -6.89185147e+10  6.90e+02 8.97e+03  5.68e+06     5s
   3   2.08104398e+11 -1.18057453e+11  5.46e+02 1.96e+03  5.36e+06     6s
   4   4.28148265e+10 -1.15791959e+11  8.38e+01 1.64e+02  9.56e+05     6s
   5   4.14331279e+09 -6.25217793e+10  6.29e+00 4.29e+00  1.35e+05     7s
   6   5.25244442e+08 -1.65594410e+10  3.51e-01 5.81e-07  2.49e+04     7s
   7   2.48020585e+08 -2.34544531e+09  4.78e-02 2.52e-07  3.62e+03     7s
   8   1.38110373e+08 -1.06751923e+09  8.43e-03 2.78e-07  1.67e+03     8s
   9   8.74467364e+07 -1.31199066e+08  7.88e-04 1.05e-07  3.02e+02     9s
  10   6.20675835e+07 -3.83854299e+07  2.48e-04 4.87e-08  1.39e+02     9s
  11   5.12362588e+07 -1.76579845e+07  1.79e-04 4.24e-08  9.52e+01    10s
  12   4.60965491e+07 -1.12453680e+07  1.49e-04 3.04e-08  7.92e+01    10s
  13   3.00394258e+07  3.50595012e+06  7.28e-05 1.40e-08  3.66e+01    10s
  14   2.53938131e+07  8.02201173e+06  5.26e-05 7.63e-09  2.40e+01    11s
  15   2.34154280e+07  8.53611348e+06  4.41e-05 6.11e-09  2.05e+01    11s
  16   1.98608155e+07  1.00602923e+07  2.83e-05 6.69e-09  1.35e+01    12s
  17   1.79620240e+07  1.14729714e+07  2.01e-05 1.47e-10  8.96e+00    13s
  18   1.70509672e+07  1.23205259e+07  1.58e-05 1.46e-09  6.53e+00    13s
  19   1.59664868e+07  1.26815647e+07  1.07e-05 8.73e-10  4.54e+00    14s
  20   1.55930066e+07  1.29931897e+07  8.81e-06 2.91e-09  3.59e+00    14s
  21   1.49474676e+07  1.32105140e+07  5.73e-06 8.73e-10  2.40e+00    14s
  22   1.45658956e+07  1.34480720e+07  3.96e-06 6.98e-10  1.54e+00    15s
  23   1.43211926e+07  1.35176714e+07  2.83e-06 3.03e-09  1.11e+00    15s
  24   1.40998283e+07  1.35747558e+07  1.82e-06 8.91e-09  7.25e-01    16s
  25   1.39295528e+07  1.36127822e+07  1.05e-06 7.97e-09  4.37e-01    17s
  26   1.38800316e+07  1.36365907e+07  8.32e-07 4.02e-09  3.36e-01    17s
  27   1.38339447e+07  1.36505385e+07  6.23e-07 9.84e-09  2.53e-01    18s
  28   1.38014782e+07  1.36590383e+07  4.78e-07 1.39e-08  1.97e-01    18s
  29   1.37787753e+07  1.36638836e+07  3.77e-07 1.15e-08  1.59e-01    18s
  30   1.37503518e+07  1.36731619e+07  2.56e-07 1.29e-08  1.07e-01    19s
  31   1.37362794e+07  1.36760836e+07  1.93e-07 1.16e-08  8.31e-02    19s
  32   1.37276928e+07  1.36795202e+07  1.56e-07 1.02e-08  6.65e-02    20s
  33   1.37205086e+07  1.36828787e+07  1.26e-07 6.11e-09  5.20e-02    21s
  34   1.37163814e+07  1.36840482e+07  1.09e-07 4.83e-09  4.46e-02    21s
  35   1.37123747e+07  1.36851219e+07  9.08e-08 3.26e-09  3.76e-02    21s
  36   1.37076975e+07  1.36860550e+07  7.00e-08 6.23e-09  2.99e-02    22s
  37   1.37040143e+07  1.36874531e+07  5.38e-08 1.39e-08  2.29e-02    22s
  38   1.37005306e+07  1.36884173e+07  3.92e-08 1.40e-08  1.67e-02    23s
  39   1.36991715e+07  1.36885986e+07  3.32e-08 1.30e-08  1.46e-02    23s
  40   1.36981647e+07  1.36893011e+07  2.92e-08 1.08e-08  1.22e-02    24s
  41   1.36971892e+07  1.36901499e+07  2.52e-08 5.88e-09  9.72e-03    24s
  42   1.36956469e+07  1.36902733e+07  1.88e-08 4.43e-09  7.42e-03    25s
  43   1.36952435e+07  1.36904302e+07  1.70e-08 3.53e-09  6.65e-03    25s
  44   1.36949964e+07  1.36904809e+07  1.59e-08 4.12e-09  6.24e-03    26s
  45   1.36947083e+07  1.36905737e+07  1.47e-08 3.35e-09  5.71e-03    26s
  46   1.36943204e+07  1.36906727e+07  1.31e-08 3.90e-09  5.04e-03    27s
  47   1.36941700e+07  1.36907505e+07  1.24e-08 2.65e-09  4.72e-03    27s
  48   1.36938458e+07  1.36907770e+07  1.10e-08 2.84e-09  4.24e-03    28s
  49   1.36936595e+07  1.36908844e+07  1.02e-08 1.86e-09  3.83e-03    28s
  50   1.36935241e+07  1.36909228e+07  9.62e-09 2.44e-09  3.59e-03    29s
  51   1.36934457e+07  1.36909365e+07  9.26e-09 2.84e-09  3.46e-03    29s
  52   1.36933455e+07  1.36909949e+07  8.82e-09 2.64e-09  3.25e-03    30s
  53   1.36932060e+07  1.36910025e+07  8.19e-09 2.15e-09  3.04e-03    30s
  54   1.36930650e+07  1.36910318e+07  7.54e-09 2.14e-09  2.81e-03    31s
  55   1.36929898e+07  1.36910465e+07  7.20e-09 1.84e-09  2.68e-03    31s
  56   1.36929240e+07  1.36910775e+07  6.91e-09 1.83e-09  2.55e-03    32s
  57   1.36928726e+07  1.36910944e+07  6.69e-09 2.19e-09  2.46e-03    32s
  58   1.36927775e+07  1.36911120e+07  6.27e-09 1.99e-09  2.30e-03    33s
  59   1.36926841e+07  1.36911212e+07  5.86e-09 1.43e-09  2.16e-03    33s
  60   1.36925463e+07  1.36911405e+07  5.22e-09 1.32e-09  1.94e-03    34s
  61   1.36922508e+07  1.36912062e+07  3.89e-09 1.78e-09  1.44e-03    34s
  62   1.36920101e+07  1.36912586e+07  2.82e-09 1.13e-08  1.04e-03    35s
  63   1.36919218e+07  1.36912757e+07  2.41e-09 5.01e-09  8.92e-04    35s
  64   1.36917629e+07  1.36913108e+07  1.74e-09 3.74e-09  6.24e-04    35s
  65   1.36916411e+07  1.36913246e+07  1.31e-09 1.01e-08  4.37e-04    36s
  66   1.36915964e+07  1.36913411e+07  1.08e-09 4.89e-09  3.52e-04    37s
  67   1.36915536e+07  1.36913519e+07  8.60e-10 4.60e-09  2.79e-04    37s
  68   1.36915507e+07  1.36913538e+07  8.45e-10 7.22e-09  2.72e-04    38s
  69   1.36914858e+07  1.36913566e+07  5.13e-10 3.38e-09  1.78e-04    39s
  70   1.36914589e+07  1.36913597e+07  3.80e-10 5.06e-09  1.37e-04    40s
  71   1.36914485e+07  1.36913624e+07  2.17e-08 3.32e-08  1.19e-04    41s
  72   1.36914466e+07  1.36913628e+07  2.11e-08 3.64e-08  1.16e-04    41s
  73   1.36914291e+07  1.36913647e+07  2.71e-07 4.57e-08  8.90e-05    42s
  74   1.36914195e+07  1.36913695e+07  5.25e-07 7.57e-09  6.89e-05    43s
  75   1.36914165e+07  1.36913723e+07  4.89e-07 1.01e-08  6.11e-05    43s
  76   1.36914041e+07  1.36913728e+07  1.80e-06 1.04e-08  4.32e-05    44s
  77   1.36914029e+07  1.36913733e+07  1.73e-06 8.67e-09  4.09e-05    45s
  78   1.36913942e+07  1.36913740e+07  1.14e-06 8.61e-09  2.78e-05    45s
  79   1.36913941e+07  1.36913740e+07  1.14e-06 8.38e-09  2.78e-05    46s
  80   1.36913941e+07  1.36913740e+07  1.14e-06 8.15e-09  2.78e-05    47s
  81   1.36913941e+07  1.36913740e+07  1.18e-06 2.47e-10  2.77e-05    48s
  82   1.36913941e+07  1.36913740e+07  1.45e-06 5.68e-10  2.77e-05    48s
  83   1.36913941e+07  1.36913740e+07  1.49e-06 7.57e-10  2.77e-05    49s
  84   1.36913941e+07  1.36913740e+07  1.49e-06 5.53e-10  2.77e-05    50s
  85   1.36913941e+07  1.36913740e+07  1.48e-06 4.37e-10  2.77e-05    51s
  86   1.36913941e+07  1.36913740e+07  1.44e-06 8.44e-10  2.77e-05    52s
  87   1.36913941e+07  1.36913740e+07  1.45e-06 1.51e-09  2.77e-05    53s
  88   1.36913941e+07  1.36913740e+07  1.39e-06 4.07e-10  2.77e-05    54s

Barrier performed 88 iterations in 53.91 seconds
Sub-optimal termination - objective 1.36913942e+07

Crossover log...

  191523 DPushes remaining with DInf 0.0000000e+00                54s
   68404 DPushes remaining with DInf 0.0000000e+00                55s
   57256 DPushes remaining with DInf 0.0000000e+00                60s
   50492 DPushes remaining with DInf 0.0000000e+00                65s
   44440 DPushes remaining with DInf 0.0000000e+00                70s
   39100 DPushes remaining with DInf 0.0000000e+00                75s
   31268 DPushes remaining with DInf 0.0000000e+00                80s
   23792 DPushes remaining with DInf 0.0000000e+00                85s
   16118 DPushes remaining with DInf 0.0000000e+00                90s
    8790 DPushes remaining with DInf 0.0000000e+00                95s
       0 DPushes remaining with DInf 2.8459998e-09                99s

  168129 PPushes remaining with PInf 1.3097379e-02                99s
   32062 PPushes remaining with PInf 1.4607288e-01               100s
       0 PPushes remaining with PInf 1.2669897e-04               103s

  Push phase complete: Pinf 1.2669897e-04, Dinf 1.2632489e+03    103s

Iteration    Objective       Primal Inf.    Dual Inf.      Time
  358896    1.3691377e+07   0.000000e+00   1.263249e+03    103s
  359096    1.3691377e+07   0.000000e+00   0.000000e+00    104s

Solved with barrier
Solved in 359096 iterations and 104.53 seconds
Optimal objective  1.369137703e+07
